(set-info :source |printed by MathSAT|)
(declare-fun call__main_.call_hypothese2.flby2 () Int)
(declare-fun call__main_.call_controleur2.flby2 () Bool)
(declare-fun avance0 () Bool)
(declare-fun retard0 () Bool)
(declare-fun diff0.next () Int)
(declare-fun diff1 () Int)
(declare-fun call__main_.nB0.next () Int)
(declare-fun call__main_._H1_.next () Bool)
(declare-fun call__main_.retard1 () Bool)
(declare-fun flby.next () Bool)
(declare-fun nS () Int)
(declare-fun diff1.next () Int)
(declare-fun call__main_.flby2 () Int)
(declare-fun call__main_.ast.next () Bool)
(declare-fun call__main_.ite2.next () Int)
(declare-fun call__main_.call_hypothese2.ok () Bool)
(declare-fun call__main_.flby.next () Int)
(declare-fun avance1.next () Bool)
(declare-fun avance1 () Bool)
(declare-fun call__main_.call_hypothese.flby2 () Int)
(declare-fun call__main_.call_hypothese2.c () Int)
(declare-fun call__main_.call_hypothese2.flby2.next () Int)
(declare-fun nB1.next () Int)
(declare-fun retard0.next () Bool)
(declare-fun call__main_.flby3.next () Int)
(declare-fun call__main_.avance0 () Bool)
(declare-fun retard1.next () Bool)
(declare-fun call__main_.avance1 () Bool)
(declare-fun call_Sofar.flby.next () Bool)
(declare-fun call__main_.call_hypothese.ok.next () Bool)
(declare-fun call__main_.call_hypothese2.ok.next () Bool)
(declare-fun call__main_.call_hypothese2.flby () Bool)
(declare-fun call__main_.call_controleur.avance.next () Bool)
(declare-fun _OK_ () Bool)
(declare-fun _OK_.next () Bool)
(declare-fun nB0.next () Int)
(declare-fun call__main_.call_controleur.flby.next () Bool)
(declare-fun call__main_.ast () Bool)
(declare-fun param__B0_.next () Bool)
(declare-fun call__main_.call_controleur2.flby.next () Bool)
(declare-fun call__main_.call_controleur2.ite2.next () Bool)
(declare-fun call__main_.retard0.next () Bool)
(declare-fun call__main_.flby () Int)
(declare-fun call_Sofar.Sofar () Bool)
(declare-fun call__main_.call_hypothese.flby2.next () Int)
(declare-fun call__main_.nB0 () Int)
(declare-fun call__main_.avance1.next () Bool)
(declare-fun call__main_.call_hypothese2.flby.next () Bool)
(declare-fun call__main_.call_controleur2.retard.next () Bool)
(declare-fun call__main_.call_hypothese2.ite2.next () Bool)
(declare-fun call__main_.call_controleur.flby2.next () Bool)
(declare-fun call__main_.call_hypothese.ite2.next () Bool)
(declare-fun flby () Bool)
(declare-fun call__main_.call_controleur2.diff () Int)
(declare-fun call_Sofar.Sofar.next () Bool)
(declare-fun call__main_.retard1.next () Bool)
(declare-fun call__main_.retard0 () Bool)
(declare-fun call__main_.call_hypothese2.ite3.next () Int)
(declare-fun call__main_.call_controleur2.avance () Bool)
(declare-fun call__main_.call_hypothese.ite4.next () Int)
(declare-fun call__main_.ite.next () Int)
(declare-fun diff0 () Int)
(declare-fun call__main_.call_hypothese2.c.next () Int)
(declare-fun call__main_.call_controleur.diff () Int)
(declare-fun call__main_._H0_.next () Bool)
(declare-fun call__main_.ite3.next () Int)
(declare-fun call__main_.nB1 () Int)
(declare-fun pOK () Bool)
(declare-fun call__main_.avance0.next () Bool)
(declare-fun call__main_.call_hypothese.ok () Bool)
(declare-fun call__main_.call_hypothese2.ite4.next () Int)
(declare-fun call__main_._H0_ () Bool)
(declare-fun call__main_.call_controleur2.flby () Bool)
(declare-fun nB1 () Int)
(declare-fun flby2 () Bool)
(declare-fun call__main_.call_controleur.retard () Bool)
(declare-fun pOK.next () Bool)
(declare-fun param__S_.next () Bool)
(declare-fun call__main_.call_controleur.flby () Bool)
(declare-fun call__main_.call_controleur.ite.next () Bool)
(declare-fun call__main_.diff0.next () Int)
(declare-fun call__main_.call_hypothese.c () Int)
(declare-fun avance0.next () Bool)
(declare-fun call__main_.diff1.next () Int)
(declare-fun call__main_.call_hypothese.flby.next () Bool)
(declare-fun nB0 () Int)
(declare-fun call__main_.call_hypothese2.ite.next () Bool)
(declare-fun call__main_.nB1.next () Int)
(declare-fun call__main_.call_controleur.retard.next () Bool)
(declare-fun call__main_.call_controleur2.ite.next () Bool)
(declare-fun call__main_.diff0 () Int)
(declare-fun call__main_.call_controleur.diff.next () Int)
(declare-fun call__main_.call_hypothese.flby () Bool)
(declare-fun call__main_.call_controleur2.flby2.next () Bool)
(declare-fun call__main_.call_controleur.ite2.next () Bool)
(declare-fun call__main_.call_hypothese.c.next () Int)
(declare-fun param__B1_.next () Bool)
(declare-fun retard1 () Bool)
(declare-fun call__main_.call_controleur.avance () Bool)
(declare-fun call__main_.call_hypothese.ite3.next () Int)
(declare-fun call__main_._H1_ () Bool)
(declare-fun ast.next () Bool)
(declare-fun call_Sofar.flby () Bool)
(declare-fun call__main_.diff1 () Int)
(declare-fun call__main_.flby3 () Int)
(declare-fun call__main_.nS () Int)
(declare-fun call__main_.nS.next () Int)
(declare-fun call__main_.call_controleur.flby2 () Bool)
(declare-fun call__main_.flby2.next () Int)
(declare-fun call__main_.call_controleur2.avance.next () Bool)
(declare-fun call__main_.call_hypothese.ite.next () Bool)
(declare-fun call__main_.call_controleur2.diff.next () Int)
(declare-fun ast () Bool)
(declare-fun nS.next () Int)
(declare-fun flby2.next () Bool)
(declare-fun call__main_.call_controleur2.retard () Bool)
(define-fun .def_999 () Bool (= call_Sofar.flby.next call_Sofar.Sofar.next))
(define-fun .def_997 () Bool (= call__main_.call_controleur2.flby2.next call__main_.call_controleur2.retard.next))
(define-fun .def_995 () Bool (= call__main_.call_controleur2.flby.next call__main_.call_controleur2.avance.next))
(define-fun .def_988 () Int (* (- 1) call__main_.nB1.next))
(define-fun .def_991 () Int (+ .def_988 call__main_.nS.next))
(define-fun .def_992 () Int (+ call__main_.call_controleur2.diff.next .def_991))
(define-fun .def_993 () Bool (= .def_992 0))
(define-fun .def_986 () Bool (= call__main_.call_controleur.flby2.next call__main_.call_controleur.retard.next))
(define-fun .def_984 () Bool (= call__main_.call_controleur.flby.next call__main_.call_controleur.avance.next))
(define-fun .def_977 () Int (* (- 1) call__main_.nB0.next))
(define-fun .def_980 () Int (+ .def_977 call__main_.nS.next))
(define-fun .def_981 () Int (+ call__main_.call_controleur.diff.next .def_980))
(define-fun .def_982 () Bool (= .def_981 0))
(define-fun .def_975 () Bool (= call__main_.call_hypothese2.flby2.next call__main_.call_hypothese2.c.next))
(define-fun .def_972 () Bool (= call__main_.call_hypothese2.flby.next call__main_.call_hypothese2.ok.next))
(define-fun .def_970 () Bool (= call__main_.call_hypothese.flby2.next call__main_.call_hypothese.c.next))
(define-fun .def_967 () Bool (= call__main_.call_hypothese.flby.next call__main_.call_hypothese.ok.next))
(define-fun .def_965 () Bool (= call__main_._H1_.next call__main_.call_hypothese2.ok.next))
(define-fun .def_962 () Bool (= call__main_._H0_.next call__main_.call_hypothese.ok.next))
(define-fun .def_959 () Bool (= call__main_.retard1.next call__main_.call_controleur2.retard.next))
(define-fun .def_956 () Bool (= call__main_.retard0.next call__main_.call_controleur.retard.next))
(define-fun .def_953 () Bool (= call__main_.avance1.next call__main_.call_controleur2.avance.next))
(define-fun .def_950 () Bool (= call__main_.avance0.next call__main_.call_controleur.avance.next))
(define-fun .def_947 () Bool (= call__main_.call_controleur2.diff.next call__main_.diff1.next))
(define-fun .def_945 () Bool (= call__main_.call_controleur.diff.next call__main_.diff0.next))
(define-fun .def_943 () Bool (= call__main_.flby3.next call__main_.nS.next))
(define-fun .def_941 () Bool (= call__main_.flby2.next call__main_.nB1.next))
(define-fun .def_939 () Bool (= call__main_.flby.next call__main_.nB0.next))
(define-fun .def_936 () Bool (and call__main_._H0_.next call__main_._H1_.next))
(define-fun .def_937 () Bool (= call__main_.ast.next .def_936))
(define-fun .def_932 () Bool (= ast.next call__main_.ast.next))
(define-fun .def_929 () Bool (= flby.next pOK.next))
(define-fun .def_926 () Bool (= retard1.next call__main_.retard1.next))
(define-fun .def_922 () Bool (= retard0.next call__main_.retard0.next))
(define-fun .def_919 () Bool (= call__main_.avance1.next avance1.next))
(define-fun .def_916 () Bool (= avance0.next call__main_.avance0.next))
(define-fun .def_914 () Bool (= diff1.next call__main_.diff1.next))
(define-fun .def_910 () Bool (= diff0.next call__main_.diff0.next))
(define-fun .def_907 () Bool (= nS.next call__main_.nS.next))
(define-fun .def_904 () Bool (= nB1.next call__main_.nB1.next))
(define-fun .def_901 () Bool (= nB0.next call__main_.nB0.next))
(define-fun .def_897 () Bool (not call_Sofar.Sofar.next))
(define-fun .def_898 () Bool (or flby2.next .def_897))
(define-fun .def_899 () Bool (= _OK_.next .def_898))
(define-fun .def_902 () Bool (and .def_899 .def_901))
(define-fun .def_905 () Bool (and .def_902 .def_904))
(define-fun .def_908 () Bool (and .def_905 .def_907))
(define-fun .def_911 () Bool (and .def_908 .def_910))
(define-fun .def_915 () Bool (and .def_911 .def_914))
(define-fun .def_917 () Bool (and .def_915 .def_916))
(define-fun .def_920 () Bool (and .def_917 .def_919))
(define-fun .def_923 () Bool (and .def_920 .def_922))
(define-fun .def_927 () Bool (and .def_923 .def_926))
(define-fun .def_930 () Bool (and .def_927 .def_929))
(define-fun .def_933 () Bool (and .def_930 .def_932))
(define-fun .def_938 () Bool (and .def_933 .def_937))
(define-fun .def_940 () Bool (and .def_938 .def_939))
(define-fun .def_942 () Bool (and .def_940 .def_941))
(define-fun .def_944 () Bool (and .def_942 .def_943))
(define-fun .def_946 () Bool (and .def_944 .def_945))
(define-fun .def_948 () Bool (and .def_946 .def_947))
(define-fun .def_951 () Bool (and .def_948 .def_950))
(define-fun .def_954 () Bool (and .def_951 .def_953))
(define-fun .def_957 () Bool (and .def_954 .def_956))
(define-fun .def_960 () Bool (and .def_957 .def_959))
(define-fun .def_963 () Bool (and .def_960 .def_962))
(define-fun .def_966 () Bool (and .def_963 .def_965))
(define-fun .def_968 () Bool (and .def_966 .def_967))
(define-fun .def_971 () Bool (and .def_968 .def_970))
(define-fun .def_973 () Bool (and .def_971 .def_972))
(define-fun .def_976 () Bool (and .def_973 .def_975))
(define-fun .def_983 () Bool (and .def_976 .def_982))
(define-fun .def_985 () Bool (and .def_983 .def_984))
(define-fun .def_987 () Bool (and .def_985 .def_986))
(define-fun .def_994 () Bool (and .def_987 .def_993))
(define-fun .def_996 () Bool (and .def_994 .def_995))
(define-fun .def_998 () Bool (and .def_996 .def_997))
(define-fun .def_1000 () Bool (and .def_998 .def_999))
(define-fun .def_678 () Bool (= call_Sofar.flby call_Sofar.Sofar))
(define-fun .def_676 () Bool (= call__main_.call_controleur2.flby2 call__main_.call_controleur2.retard))
(define-fun .def_674 () Bool (= call__main_.call_controleur2.flby call__main_.call_controleur2.avance))
(define-fun .def_669 () Int (* (- 1) call__main_.call_controleur2.diff))
(define-fun .def_657 () Int (* (- 1) call__main_.nS))
(define-fun .def_670 () Int (+ .def_657 .def_669))
(define-fun .def_671 () Int (+ call__main_.nB1 .def_670))
(define-fun .def_672 () Bool (= .def_671 0))
(define-fun .def_664 () Bool (= call__main_.call_controleur.flby2 call__main_.call_controleur.retard))
(define-fun .def_662 () Bool (= call__main_.call_controleur.flby call__main_.call_controleur.avance))
(define-fun .def_656 () Int (* (- 1) call__main_.call_controleur.diff))
(define-fun .def_658 () Int (+ .def_657 .def_656))
(define-fun .def_659 () Int (+ call__main_.nB0 .def_658))
(define-fun .def_660 () Bool (= .def_659 0))
(define-fun .def_651 () Bool (= call__main_.call_hypothese2.flby2 call__main_.call_hypothese2.c))
(define-fun .def_648 () Bool (= call__main_.call_hypothese2.flby call__main_.call_hypothese2.ok))
(define-fun .def_646 () Bool (= call__main_.call_hypothese.flby2 call__main_.call_hypothese.c))
(define-fun .def_643 () Bool (= call__main_.call_hypothese.flby call__main_.call_hypothese.ok))
(define-fun .def_641 () Bool (= call__main_._H1_ call__main_.call_hypothese2.ok))
(define-fun .def_638 () Bool (= call__main_._H0_ call__main_.call_hypothese.ok))
(define-fun .def_635 () Bool (= call__main_.retard1 call__main_.call_controleur2.retard))
(define-fun .def_632 () Bool (= call__main_.retard0 call__main_.call_controleur.retard))
(define-fun .def_629 () Bool (= call__main_.avance1 call__main_.call_controleur2.avance))
(define-fun .def_626 () Bool (= call__main_.avance0 call__main_.call_controleur.avance))
(define-fun .def_623 () Bool (= call__main_.diff1 call__main_.call_controleur2.diff))
(define-fun .def_620 () Bool (= call__main_.diff0 call__main_.call_controleur.diff))
(define-fun .def_617 () Bool (= call__main_.flby3 call__main_.nS))
(define-fun .def_615 () Bool (= call__main_.flby2 call__main_.nB1))
(define-fun .def_613 () Bool (= call__main_.flby call__main_.nB0))
(define-fun .def_610 () Bool (and call__main_._H0_ call__main_._H1_))
(define-fun .def_611 () Bool (= call__main_.ast .def_610))
(define-fun .def_606 () Bool (= ast call__main_.ast))
(define-fun .def_603 () Bool (= flby pOK))
(define-fun .def_600 () Bool (= retard1 call__main_.retard1))
(define-fun .def_596 () Bool (= retard0 call__main_.retard0))
(define-fun .def_592 () Bool (= avance1 call__main_.avance1))
(define-fun .def_588 () Bool (= avance0 call__main_.avance0))
(define-fun .def_584 () Bool (= diff1 call__main_.diff1))
(define-fun .def_580 () Bool (= diff0 call__main_.diff0))
(define-fun .def_577 () Bool (= nS call__main_.nS))
(define-fun .def_574 () Bool (= nB1 call__main_.nB1))
(define-fun .def_571 () Bool (= nB0 call__main_.nB0))
(define-fun .def_567 () Bool (not call_Sofar.Sofar))
(define-fun .def_568 () Bool (or flby2 .def_567))
(define-fun .def_569 () Bool (= _OK_ .def_568))
(define-fun .def_572 () Bool (and .def_569 .def_571))
(define-fun .def_575 () Bool (and .def_572 .def_574))
(define-fun .def_578 () Bool (and .def_575 .def_577))
(define-fun .def_581 () Bool (and .def_578 .def_580))
(define-fun .def_585 () Bool (and .def_581 .def_584))
(define-fun .def_589 () Bool (and .def_585 .def_588))
(define-fun .def_593 () Bool (and .def_589 .def_592))
(define-fun .def_597 () Bool (and .def_593 .def_596))
(define-fun .def_601 () Bool (and .def_597 .def_600))
(define-fun .def_604 () Bool (and .def_601 .def_603))
(define-fun .def_607 () Bool (and .def_604 .def_606))
(define-fun .def_612 () Bool (and .def_607 .def_611))
(define-fun .def_614 () Bool (and .def_612 .def_613))
(define-fun .def_616 () Bool (and .def_614 .def_615))
(define-fun .def_618 () Bool (and .def_616 .def_617))
(define-fun .def_621 () Bool (and .def_618 .def_620))
(define-fun .def_624 () Bool (and .def_621 .def_623))
(define-fun .def_627 () Bool (and .def_624 .def_626))
(define-fun .def_630 () Bool (and .def_627 .def_629))
(define-fun .def_633 () Bool (and .def_630 .def_632))
(define-fun .def_636 () Bool (and .def_633 .def_635))
(define-fun .def_639 () Bool (and .def_636 .def_638))
(define-fun .def_642 () Bool (and .def_639 .def_641))
(define-fun .def_644 () Bool (and .def_642 .def_643))
(define-fun .def_647 () Bool (and .def_644 .def_646))
(define-fun .def_649 () Bool (and .def_647 .def_648))
(define-fun .def_652 () Bool (and .def_649 .def_651))
(define-fun .def_661 () Bool (and .def_652 .def_660))
(define-fun .def_663 () Bool (and .def_661 .def_662))
(define-fun .def_665 () Bool (and .def_663 .def_664))
(define-fun .def_673 () Bool (and .def_665 .def_672))
(define-fun .def_675 () Bool (and .def_673 .def_674))
(define-fun .def_677 () Bool (and .def_675 .def_676))
(define-fun .def_679 () Bool (and .def_677 .def_678))
(define-fun .def_1001 () Bool (and .def_679 .def_1000))
(define-fun .def_888 () Bool (<= 32767 diff0.next))
(define-fun .def_889 () Bool (not .def_888))
(define-fun .def_884 () Bool (<= 1 nS.next))
(define-fun .def_885 () Bool (not .def_884))
(define-fun .def_880 () Bool (<= 1 nB1.next))
(define-fun .def_881 () Bool (not .def_880))
(define-fun .def_875 () Bool (<= 1 nB0.next))
(define-fun .def_876 () Bool (not .def_875))
(define-fun .def_878 () Bool (and .def_876 ast.next))
(define-fun .def_882 () Bool (and .def_878 .def_881))
(define-fun .def_886 () Bool (and .def_882 .def_885))
(define-fun .def_890 () Bool (and .def_886 .def_889))
(define-fun .def_891 () Bool (and call_Sofar.Sofar .def_890))
(define-fun .def_893 () Bool (= .def_891 call_Sofar.flby.next))
(define-fun .def_872 () Bool (= call__main_.call_controleur2.ite2.next call__main_.call_controleur2.flby2.next))
(define-fun .def_869 () Bool (= call__main_.call_controleur2.ite.next call__main_.call_controleur2.flby.next))
(define-fun .def_862 () Bool (<= 0 call__main_.call_controleur2.diff.next))
(define-fun .def_863 () Bool (not .def_862))
(define-fun .def_864 () Bool (= call__main_.call_controleur2.ite2.next .def_863))
(define-fun .def_861 () Bool (not call__main_.call_controleur2.retard))
(define-fun .def_865 () Bool (or .def_861 .def_864))
(define-fun .def_856 () Bool (<= call__main_.call_controleur2.diff.next (- 10)))
(define-fun .def_858 () Bool (= .def_856 call__main_.call_controleur2.ite2.next))
(define-fun .def_859 () Bool (or call__main_.call_controleur2.retard .def_858))
(define-fun .def_852 () Bool (<= 10 call__main_.call_controleur2.diff.next))
(define-fun .def_853 () Bool (= call__main_.call_controleur2.ite.next .def_852))
(define-fun .def_854 () Bool (or call__main_.call_controleur2.avance .def_853))
(define-fun .def_847 () Bool (<= call__main_.call_controleur2.diff.next 0))
(define-fun .def_848 () Bool (not .def_847))
(define-fun .def_850 () Bool (= .def_848 call__main_.call_controleur2.ite.next))
(define-fun .def_845 () Bool (not call__main_.call_controleur2.avance))
(define-fun .def_851 () Bool (or .def_845 .def_850))
(define-fun .def_855 () Bool (and .def_851 .def_854))
(define-fun .def_860 () Bool (and .def_855 .def_859))
(define-fun .def_866 () Bool (and .def_860 .def_865))
(define-fun .def_843 () Bool (= call__main_.call_controleur.ite2.next call__main_.call_controleur.flby2.next))
(define-fun .def_840 () Bool (= call__main_.call_controleur.ite.next call__main_.call_controleur.flby.next))
(define-fun .def_833 () Bool (<= 0 call__main_.call_controleur.diff.next))
(define-fun .def_834 () Bool (not .def_833))
(define-fun .def_835 () Bool (= call__main_.call_controleur.ite2.next .def_834))
(define-fun .def_832 () Bool (not call__main_.call_controleur.retard))
(define-fun .def_836 () Bool (or .def_832 .def_835))
(define-fun .def_827 () Bool (<= call__main_.call_controleur.diff.next (- 10)))
(define-fun .def_829 () Bool (= .def_827 call__main_.call_controleur.ite2.next))
(define-fun .def_830 () Bool (or call__main_.call_controleur.retard .def_829))
(define-fun .def_823 () Bool (<= 10 call__main_.call_controleur.diff.next))
(define-fun .def_824 () Bool (= call__main_.call_controleur.ite.next .def_823))
(define-fun .def_825 () Bool (or call__main_.call_controleur.avance .def_824))
(define-fun .def_818 () Bool (<= call__main_.call_controleur.diff.next 0))
(define-fun .def_819 () Bool (not .def_818))
(define-fun .def_821 () Bool (= .def_819 call__main_.call_controleur.ite.next))
(define-fun .def_816 () Bool (not call__main_.call_controleur.avance))
(define-fun .def_822 () Bool (or .def_816 .def_821))
(define-fun .def_826 () Bool (and .def_822 .def_825))
(define-fun .def_831 () Bool (and .def_826 .def_830))
(define-fun .def_837 () Bool (and .def_831 .def_836))
(define-fun .def_814 () Bool (= call__main_.call_hypothese2.ite4.next call__main_.call_hypothese2.flby2.next))
(define-fun .def_809 () Bool (and call__main_.call_hypothese2.ite2.next call__main_.call_hypothese2.ite.next))
(define-fun .def_811 () Bool (= .def_809 call__main_.call_hypothese2.flby.next))
(define-fun .def_690 () Bool (<= 9 call__main_.call_hypothese2.c))
(define-fun .def_807 () Bool (or call__main_.call_hypothese2.ite2.next .def_690))
(define-fun .def_805 () Bool (= call__main_.call_hypothese.ite4.next call__main_.call_hypothese.flby2.next))
(define-fun .def_800 () Bool (and call__main_.call_hypothese.ite2.next call__main_.call_hypothese.ite.next))
(define-fun .def_802 () Bool (= .def_800 call__main_.call_hypothese.flby.next))
(define-fun .def_715 () Bool (<= 9 call__main_.call_hypothese.c))
(define-fun .def_798 () Bool (or call__main_.call_hypothese.ite2.next .def_715))
(define-fun .def_796 () Bool (= call__main_.ite3.next call__main_.flby3.next))
(define-fun .def_793 () Bool (= call__main_.ite2.next call__main_.flby2.next))
(define-fun .def_790 () Bool (= call__main_.ite.next call__main_.flby.next))
(define-fun .def_787 () Bool (or call__main_.retard1 call__main_.call_hypothese2.ite.next))
(define-fun .def_785 () Bool (or call__main_.retard0 call__main_.call_hypothese.ite.next))
(define-fun .def_778 () Bool (and call__main_.avance1 call__main_.avance1.next))
(define-fun .def_781 () Bool (not .def_778))
(define-fun .def_780 () Bool (= call__main_.call_hypothese2.ite3.next call__main_.call_hypothese2.ite4.next))
(define-fun .def_782 () Bool (or .def_780 .def_781))
(define-fun .def_776 () Bool (= call__main_.call_hypothese2.ite4.next 0))
(define-fun .def_779 () Bool (or .def_776 .def_778))
(define-fun .def_783 () Bool (and .def_779 .def_782))
(define-fun .def_768 () Bool (and call__main_.avance0 call__main_.avance0.next))
(define-fun .def_771 () Bool (not .def_768))
(define-fun .def_770 () Bool (= call__main_.call_hypothese.ite3.next call__main_.call_hypothese.ite4.next))
(define-fun .def_772 () Bool (or .def_770 .def_771))
(define-fun .def_766 () Bool (= call__main_.call_hypothese.ite4.next 0))
(define-fun .def_769 () Bool (or .def_766 .def_768))
(define-fun .def_773 () Bool (and .def_769 .def_772))
(define-fun .def_763 () Bool (= pOK flby2.next))
(define-fun .def_756 () Bool (and retard0 avance0.next))
(define-fun .def_754 () Bool (and avance0 retard0.next))
(define-fun .def_757 () Bool (or .def_754 .def_756))
(define-fun .def_758 () Bool (not .def_757))
(define-fun .def_760 () Bool (= .def_758 flby.next))
(define-fun .def_749 () Bool (= call__main_.nS call__main_.ite3.next))
(define-fun .def_750 () Bool (or param__S_.next .def_749))
(define-fun .def_744 () Int (* (- 1) call__main_.ite3.next))
(define-fun .def_745 () Int (+ call__main_.nS .def_744))
(define-fun .def_746 () Bool (= .def_745 (- 1)))
(define-fun .def_733 () Bool (not param__S_.next))
(define-fun .def_747 () Bool (or .def_733 .def_746))
(define-fun .def_740 () Bool (not call__main_.retard0))
(define-fun .def_739 () Bool (= .def_733 call__main_.call_hypothese.ite.next))
(define-fun .def_741 () Bool (or .def_739 .def_740))
(define-fun .def_736 () Bool (not call__main_.retard1))
(define-fun .def_735 () Bool (= .def_733 call__main_.call_hypothese2.ite.next))
(define-fun .def_737 () Bool (or .def_735 .def_736))
(define-fun .def_742 () Bool (and .def_737 .def_741))
(define-fun .def_748 () Bool (and .def_742 .def_747))
(define-fun .def_751 () Bool (and .def_748 .def_750))
(define-fun .def_728 () Bool (= call__main_.nB0 call__main_.ite.next))
(define-fun .def_729 () Bool (or param__B0_.next .def_728))
(define-fun .def_723 () Int (* (- 1) call__main_.ite.next))
(define-fun .def_724 () Int (+ call__main_.nB0 .def_723))
(define-fun .def_725 () Bool (= .def_724 (- 1)))
(define-fun .def_711 () Bool (not param__B0_.next))
(define-fun .def_726 () Bool (or .def_711 .def_725))
(define-fun .def_719 () Bool (= call__main_.call_hypothese.c call__main_.call_hypothese.ite3.next))
(define-fun .def_720 () Bool (or param__B0_.next .def_719))
(define-fun .def_716 () Bool (not .def_715))
(define-fun .def_714 () Bool (= .def_711 call__main_.call_hypothese.ite2.next))
(define-fun .def_717 () Bool (or .def_714 .def_716))
(define-fun .def_707 () Int (* (- 1) call__main_.call_hypothese.ite3.next))
(define-fun .def_708 () Int (+ call__main_.call_hypothese.c .def_707))
(define-fun .def_709 () Bool (= .def_708 (- 1)))
(define-fun .def_712 () Bool (or .def_709 .def_711))
(define-fun .def_718 () Bool (and .def_712 .def_717))
(define-fun .def_721 () Bool (and .def_718 .def_720))
(define-fun .def_727 () Bool (and .def_721 .def_726))
(define-fun .def_730 () Bool (and .def_727 .def_729))
(define-fun .def_703 () Bool (= call__main_.nB1 call__main_.ite2.next))
(define-fun .def_704 () Bool (or param__B1_.next .def_703))
(define-fun .def_698 () Int (* (- 1) call__main_.ite2.next))
(define-fun .def_699 () Int (+ call__main_.nB1 .def_698))
(define-fun .def_700 () Bool (= .def_699 (- 1)))
(define-fun .def_686 () Bool (not param__B1_.next))
(define-fun .def_701 () Bool (or .def_686 .def_700))
(define-fun .def_694 () Bool (= call__main_.call_hypothese2.c call__main_.call_hypothese2.ite3.next))
(define-fun .def_695 () Bool (or param__B1_.next .def_694))
(define-fun .def_691 () Bool (not .def_690))
(define-fun .def_689 () Bool (= .def_686 call__main_.call_hypothese2.ite2.next))
(define-fun .def_692 () Bool (or .def_689 .def_691))
(define-fun .def_682 () Int (* (- 1) call__main_.call_hypothese2.ite3.next))
(define-fun .def_683 () Int (+ call__main_.call_hypothese2.c .def_682))
(define-fun .def_684 () Bool (= .def_683 (- 1)))
(define-fun .def_687 () Bool (or .def_684 .def_686))
(define-fun .def_693 () Bool (and .def_687 .def_692))
(define-fun .def_696 () Bool (and .def_693 .def_695))
(define-fun .def_702 () Bool (and .def_696 .def_701))
(define-fun .def_705 () Bool (and .def_702 .def_704))
(define-fun .def_731 () Bool (and .def_705 .def_730))
(define-fun .def_752 () Bool (and .def_731 .def_751))
(define-fun .def_761 () Bool (and .def_752 .def_760))
(define-fun .def_764 () Bool (and .def_761 .def_763))
(define-fun .def_774 () Bool (and .def_764 .def_773))
(define-fun .def_784 () Bool (and .def_774 .def_783))
(define-fun .def_786 () Bool (and .def_784 .def_785))
(define-fun .def_788 () Bool (and .def_786 .def_787))
(define-fun .def_791 () Bool (and .def_788 .def_790))
(define-fun .def_794 () Bool (and .def_791 .def_793))
(define-fun .def_797 () Bool (and .def_794 .def_796))
(define-fun .def_799 () Bool (and .def_797 .def_798))
(define-fun .def_803 () Bool (and .def_799 .def_802))
(define-fun .def_806 () Bool (and .def_803 .def_805))
(define-fun .def_808 () Bool (and .def_806 .def_807))
(define-fun .def_812 () Bool (and .def_808 .def_811))
(define-fun .def_815 () Bool (and .def_812 .def_814))
(define-fun .def_838 () Bool (and .def_815 .def_837))
(define-fun .def_841 () Bool (and .def_838 .def_840))
(define-fun .def_844 () Bool (and .def_841 .def_843))
(define-fun .def_867 () Bool (and .def_844 .def_866))
(define-fun .def_870 () Bool (and .def_867 .def_869))
(define-fun .def_873 () Bool (and .def_870 .def_872))
(define-fun .def_894 () Bool (and .def_873 .def_893))
(define-fun .def_1002 () Bool (and .def_894 .def_1001))
(assert .def_1002)
